NAME: rue_25_6
TYPE: TSP
DIMENSION: 25
EDGE_WEIGHT_TYPE: EUC_2D
NODE_COORD_SECTION
1 17 21
2 20 9
3 11 13
4 13 4
5 37 21
6 9 22
7 23 7
8 18 21
9 35 31
10 40 25
11 30 10
12 29 12
13 39 10
14 18 21
15 25 39
16 22 38
17 7 38
18 36 40
19 7 20
20 28 7
21 40 34
22 20 23
23 40 19
24 6 11
25 5 30

